0 7 0 20 1 2 1 26 2 8 3 31 3 34 4 13 4 35 5 6 5 27 6 11 7 39 8 18 9 12 9 16 10 17 10 29 11 23 12 36 13 30 14 19 14 36 15 24 15 28 16 33 17 24 18 21 19 38 20 37 21 33 22 27 22 30 23 25 25 39 26 29 28 35 31 32 32 38 34 37 
